     Program PWSCF v.6.5 starts on 14Jun2020 at 23:46:59

     R & G space division:  proc/nbgrp/npool/nimage =      16
     Reading input from knbo_relax.in

     Current dimensions of program PWSCF are:
     Max number of different atomic species (ntypx) = 10
     Max number of k-points (npk) =  40000
     Max angular momentum in pseudopotentials (lmaxx) =  3
               file Nb.pbe-spn-kjpaw_psl.0.3.0.UPF: wavefunction(s)  4S 4P renormalized
               file K.pbe-spn-kjpaw_psl.1.0.0.UPF: wavefunction(s)  3S renormalized
               file O.pbe-n-kjpaw_psl.0.1.UPF: wavefunction(s)  2P renormalized

     Subspace diagonalization in iterative solution of the eigenvalue problem:
     a serial algorithm will be used

     bravais-lattice index     =            8
     lattice parameter (alat)  =      14.7966  a.u.
     unit-cell volume          =   11335.9946 (a.u.)^3
     number of atoms/cell      =          108
     number of atomic types    =            3
     number of electrons       =       864.00
     number of Kohn-Sham states=          432
     kinetic-energy cutoff     =      30.0000  Ry
     charge density cutoff     =     120.0000  Ry
     convergence threshold     =      1.0E-04
     mixing beta               =       0.4000
     number of iterations used =            8  plain     mixing
     Exchange-correlation= SLA PW PBX PBC
                           (   1   4   3   4   0   0   0)
     nstep                     =           50

     celldm(1)=  14.796556  celldm(2)=   4.241378  celldm(3)=   0.825032
     celldm(4)=   0.000000  celldm(5)=   0.000000  celldm(6)=   0.000000

     crystal axes: (cart. coord. in units of alat)
               a(1) = (   1.000000   0.000000   0.000000 )
               a(2) = (   0.000000   4.241378   0.000000 )
               a(3) = (   0.000000   0.000000   0.825032 )

     reciprocal axes: (cart. coord. in units 2 pi/alat)
               b(1) = (  1.000000  0.000000  0.000000 )
               b(2) = (  0.000000  0.235772  0.000000 )
               b(3) = (  0.000000  0.000000  1.212074 )

     PseudoPot. # 1 for Nb read from file:
     ./Nb.pbe-spn-kjpaw_psl.0.3.0.UPF
     MD5 check sum: 411d72ad547312f8017e2943ceca08cc
     Pseudo is Projector augmented-wave + core cor, Zval = 13.0
     Generated using "atomic" code by A. Dal Corso v.5.0.99 svn rev. 10869
     Shape of augmentation charge: PSQ
     Using radial grid of 1227 points,  6 beta functions with:
                l(1) =   0
                l(2) =   0
                l(3) =   1
                l(4) =   1
                l(5) =   2
                l(6) =   2
     Q(r) pseudized with 0 coefficients

     PseudoPot. # 2 for K  read from file:
     ./K.pbe-spn-kjpaw_psl.1.0.0.UPF
     MD5 check sum: 7d58810084cac21f60fbe77ea2b688fd
     Pseudo is Projector augmented-wave + core cor, Zval =  9.0
     Generated using "atomic" code by A. Dal Corso v.5.1
     Shape of augmentation charge: PSQ
     Using radial grid of 1165 points,  6 beta functions with:
                l(1) =   0
                l(2) =   0
                l(3) =   1
                l(4) =   1
                l(5) =   2
                l(6) =   2
     Q(r) pseudized with 0 coefficients

     PseudoPot. # 3 for O  read from file:
     ./O.pbe-n-kjpaw_psl.0.1.UPF
     MD5 check sum: 0234752ac141de4415c5fc33072bef88
     Pseudo is Projector augmented-wave + core cor, Zval =  6.0
     Generated using "atomic" code by A. Dal Corso v.5.0.99 svn rev. 10869
     Shape of augmentation charge: BESSEL
     Using radial grid of 1095 points,  4 beta functions with:
                l(1) =   0
                l(2) =   0
                l(3) =   1
                l(4) =   1
     Q(r) pseudized with 0 coefficients

     atomic species   valence    mass     pseudopotential
        Nb            13.00    92.90638     Nb( 1.00)
        K              9.00    39.09830     K ( 1.00)
        O              6.00    15.99940     O ( 1.00)

     No symmetry found

   Cartesian axes

     site n.     atom                  positions (alat units)
         1           Nb  tau(   1) = (   0.2562277   1.8253102   0.3866222  )
         2           Nb  tau(   2) = (   0.7562277   0.3482066   0.0537862  )
         3           Nb  tau(   3) = (   0.7562277   2.4688969   0.7991382  )
         4           Nb  tau(   4) = (   0.2562277   3.9459992   0.4663022  )
         5           Nb  tau(   5) = (   0.2640977   0.3484188   0.0504045  )
         6           Nb  tau(   6) = (   0.7640977   1.8250982   0.3900041  )
         7           Nb  tau(   7) = (   0.7640977   3.9457872   0.4629204  )
         8           Nb  tau(   8) = (   0.2640977   2.4691091   0.8025201  )
         9           Nb  tau(   9) = (   0.2551167   1.6178645   0.0187397  )
        10           Nb  tau(  10) = (   0.7551167   0.5556525   0.4216688  )
        11           Nb  tau(  11) = (   0.7551167   2.6763428   0.4312557  )
        12           Nb  tau(  12) = (   0.2551167   3.7385535   0.0091529  )
        13           Nb  tau(  13) = (   0.2709378   0.5473393   0.4120332  )
        14           Nb  tau(  14) = (   0.7709378   1.6261775   0.0283752  )
        15           Nb  tau(  15) = (   0.7709378   3.7468665   0.8245492  )
        16           Nb  tau(  16) = (   0.2709378   2.6680296   0.4408912  )
        17           Nb  tau(  17) = (   0.5179387   1.4914290   0.3332006  )
        18           Nb  tau(  18) = (   0.0179387   0.6820880   0.1072079  )
        19           Nb  tau(  19) = (   0.0179387   2.8027783   0.7457166  )
        20           Nb  tau(  20) = (   0.5179387   3.6121180   0.5197239  )
        21           Nb  tau(  21) = (   0.5176387   1.2984462   0.7814405  )
        22           Nb  tau(  22) = (   0.0176387   0.8750706   0.4840000  )
        23           Nb  tau(  23) = (   0.0176387   2.9957609   0.3689245  )
        24           Nb  tau(  24) = (   0.5176387   3.4191352   0.0714840  )
        25           K   tau(  25) = (   0.5046457   2.0237644   0.7573932  )
        26           K   tau(  26) = (   0.0046457   0.1497526   0.5080471  )
        27           K   tau(  27) = (   0.0046457   2.2704429   0.3448773  )
        28           K   tau(  28) = (   0.5046457   4.1444534   0.0955312  )
        29           K   tau(  29) = (   0.0071558   2.0102344   0.7526106  )
        30           K   tau(  30) = (   0.5071558   0.1632826   0.5128299  )
        31           K   tau(  31) = (   0.5071558   2.2839729   0.3400946  )
        32           K   tau(  32) = (   0.0071558   4.1309234   0.1003139  )
        33           K   tau(  33) = (   0.0061538   1.4342552   0.4956957  )
        34           K   tau(  34) = (   0.5061538   0.7392617   0.7697448  )
        35           K   tau(  35) = (   0.5061538   2.8599520   0.0831797  )
        36           K   tau(  36) = (   0.0061538   3.5549442   0.3572289  )
        37           K   tau(  37) = (   0.0104618   1.1776519   0.0509217  )
        38           K   tau(  38) = (   0.5104618   0.9958651   0.3894867  )
        39           K   tau(  39) = (   0.5104618   3.1165554   0.4634377  )
        40           K   tau(  40) = (   0.0104618   3.2983409   0.8020027  )
        41           O   tau(  41) = (   0.2994167   2.0280057   0.4498203  )
        42           O   tau(  42) = (   0.7994167   0.1455112   0.8156202  )
        43           O   tau(  43) = (   0.7994167   2.2662015   0.0373043  )
        44           O   tau(  44) = (   0.2994167   4.1486948   0.4031042  )
        45           O   tau(  45) = (   0.7425008   2.0534328   0.4501308  )
        46           O   tau(  46) = (   0.2425008   0.1200842   0.8153097  )
        47           O   tau(  47) = (   0.2425008   2.2407745   0.0376148  )
        48           O   tau(  48) = (   0.7425008   4.1741218   0.4027937  )
        49           O   tau(  49) = (   0.2693618   1.6999351   0.6307814  )
        50           O   tau(  50) = (   0.7693618   0.4735819   0.6346590  )
        51           O   tau(  51) = (   0.7693618   2.5942722   0.2182654  )
        52           O   tau(  52) = (   0.2693618   3.8206241   0.2221430  )
        53           O   tau(  53) = (   0.7751678   1.7386165   0.6461344  )
        54           O   tau(  54) = (   0.2751678   0.4349004   0.6193060  )
        55           O   tau(  55) = (   0.2751678   2.5555907   0.2336184  )
        56           O   tau(  56) = (   0.7751678   3.8593055   0.2067900  )
        57           O   tau(  57) = (   0.2790598   1.3755545   0.7739236  )
        58           O   tau(  58) = (   0.7790598   0.7979625   0.4915169  )
        59           O   tau(  59) = (   0.7790598   2.9186527   0.3614077  )
        60           O   tau(  60) = (   0.2790598   3.4962436   0.0790009  )
[...]
        94           O   tau(  94) = (   0.5062381   0.3755212   0.0281732  )
        95           O   tau(  95) = (   0.5062381   2.4962115   0.8247513  )
        96           O   tau(  96) = (   0.0062381   3.9186848   0.4406891  )
        97           O   tau(  97) = (   0.4958277   1.7491775   0.4042243  )
        98           O   tau(  98) = (   0.9958277   0.4243395   0.0361842  )
        99           O   tau(  99) = (   0.9958277   2.5450298   0.8167402  )
       100           O   tau( 100) = (   0.4958277   3.8698665   0.4487001  )
       101           O   tau( 101) = (   0.5320898   1.0702165   0.7360670  )
       102           O   tau( 102) = (   0.0320898   1.1033005   0.5293734  )
       103           O   tau( 103) = (   0.0320898   3.2239895   0.3235511  )
       104           O   tau( 104) = (   0.5320898   3.1909068   0.1168575  )
       105           O   tau( 105) = (   0.5345277   1.3996456   0.5398547  )
       106           O   tau( 106) = (   0.0345277   0.7738714   0.7255858  )
       107           O   tau( 107) = (   0.0345277   2.8945617   0.1273387  )
       108           O   tau( 108) = (   0.5345277   3.5203346   0.3130699  )

     number of k points=     4
                       cart. coord. in units 2pi/alat
        k(    1) = (   0.0000000   0.0000000   0.0000000), wk =   0.5000000
        k(    2) = (   0.0000000   0.0000000  -0.6060372), wk =   0.5000000
        k(    3) = (  -0.5000000   0.0000000   0.0000000), wk =   0.5000000
        k(    4) = (  -0.5000000   0.0000000  -0.6060372), wk =   0.5000000

     Check: negative core charge=   -0.000190

     Initial potential from superposition of free atoms

     starting charge  863.64768, renormalised to  864.00000
     Starting wfcs are  640 randomized atomic wfcs
     Checking if some PAW data can be deallocated...

     Self-consistent Calculation

     iteration #  1     ecut=    30.00 Ry     beta= 0.40
     Davidson diagonalization with overlap
     ethr =  1.00E-02,  avg # of iterations =  1.5

     total energy              =  -12651.38305574 Ry
     Harris-Foulkes estimate   =  -12683.37358674 Ry
     estimated scf accuracy    <      56.35638682 Ry

[...]

     negative rho (up, down):  1.088E-07 0.000E+00

[...]

     End of self-consistent calculation

          k = 0.0000 0.0000 0.0000 ( 31457 PWs)   bands (ev):

   -49.1918 -49.1916 -49.1915 -49.1914 -48.8277 -48.8276 -48.8274 -48.8272
[...]
     Diagonalizing with lowered threshold

     Davidson diagonalization with overlap
     ethr =  1.10E-08,  avg # of iterations =  4.2

[...]

     total energy              =  -12670.37017210 Ry
     Harris-Foulkes estimate   =  -12670.37017281 Ry
     estimated scf accuracy    <       0.00000271 Ry

     iteration #  5     ecut=    30.00 Ry     beta= 0.40
     Davidson diagonalization with overlap
     ethr =  3.14E-10,  avg # of iterations =  4.0

[...]

     End of self-consistent calculation

[...]

          k = 0.0000 0.0000-0.6060 ( 31394 PWs)   bands (ev):

[...]

          k =-0.5000 0.0000-0.6060 ( 31516 PWs)   bands (ev):

   -48.9089 -48.9076 -48.9071 -48.9044 -48.9002 -48.8996 -48.8992 -48.8990
   -48.7408 -48.7407 -48.7368 -48.7363 -48.6445 -48.6440 -48.6417 -48.6413
   -48.6381 -48.6375 -48.6370 -48.6333 -48.4750 -48.4729 -48.4696 -48.4659
   -25.2301 -25.2296 -25.2252 -25.2242 -25.1946 -25.1930 -25.1906 -25.1905
   -25.1579 -25.1574 -25.1570 -25.1569 -25.1291 -25.1287 -25.1278 -25.1268
   -25.0991 -25.0975 -25.0971 -25.0948 -25.0872 -25.0870 -25.0863 -25.0855
   -25.0156 -25.0154 -25.0141 -25.0140 -25.0005 -25.0005 -24.9971 -24.9965
   -24.9442 -24.9435 -24.9427 -24.9402 -24.9232 -24.9230 -24.9204 -24.9182
   -24.8899 -24.8879 -24.8872 -24.8845 -24.8298 -24.8276 -24.8254 -24.8233
   -24.8222 -24.8220 -24.8207 -24.8180 -24.7860 -24.7837 -24.7836 -24.7799
   -24.7723 -24.7705 -24.7685 -24.7646 -24.7601 -24.7574 -24.7560 -24.7521
   -24.6583 -24.6570 -24.6561 -24.6529 -24.6100 -24.6068 -24.6057 -24.6011
   -22.1287 -22.1169 -22.0982 -22.0886 -21.9947 -21.9881 -21.9865 -21.9781
   -21.8223 -21.8201 -21.8087 -21.8066 -21.6918 -21.6901 -21.6867 -21.6807
   -11.3906 -11.3883 -11.3871 -11.3859 -11.1296 -11.1280 -11.1236 -11.1234
   -10.9706 -10.9665 -10.9650 -10.9626 -10.9358 -10.9319 -10.9298 -10.9280
   -10.9145 -10.9122 -10.9063 -10.9056 -10.8288 -10.8275 -10.8255 -10.8227
   -10.8222 -10.8195 -10.8191 -10.8123 -10.6532 -10.6509 -10.6506 -10.6494
   -10.5808 -10.5740 -10.5724 -10.5643 -10.5075 -10.5048 -10.5015 -10.4977
   -10.3941 -10.3940 -10.3938 -10.3932 -10.2663 -10.2648 -10.2641 -10.2624
   -10.2056 -10.2037 -10.1928 -10.1918 -10.0265 -10.0198 -10.0170 -10.0094
    -9.9172  -9.9125  -9.9080  -9.9072  -9.8504  -9.8492  -9.8441  -9.8435
    -9.8296  -9.8251  -9.8200  -9.8194  -5.6851  -5.6739  -5.6633  -5.6546
    -5.6300  -5.6196  -5.6062  -5.5974  -5.5703  -5.5595  -5.5455  -5.5360
    -5.5084  -5.5071  -5.5005  -5.4975  -5.4763  -5.4740  -5.4690  -5.4668
    -5.4387  -5.4337  -5.4301  -5.4241  -5.3621  -5.3607  -5.3492  -5.3472
    -5.3276  -5.3267  -5.3187  -5.3181  -5.3179  -5.3171  -5.3065  -5.3043
    -5.2409  -5.2403  -5.2329  -5.2293  -5.1850  -5.1835  -5.1801  -5.1744
    -5.1227  -5.1205  -5.1163  -5.1117   0.8479   0.8492   0.8596   0.8609
     1.1058   1.1075   1.1103   1.1118   1.1521   1.1537   1.1563   1.1590
     1.2431   1.2441   1.2454   1.2472   1.2879   1.2908   1.2928   1.2939
     1.3706   1.3737   1.3790   1.3839   1.5617   1.5629   1.5668   1.5702
     1.7711   1.7735   1.7804   1.7816   1.8399   1.8447   1.8516   1.8568
     1.9366   1.9375   1.9424   1.9449   2.1012   2.1061   2.1128   2.1171
     2.1485   2.1509   2.1574   2.1599   2.3383   2.3418   2.3507   2.3544
     2.4512   2.4575   2.4647   2.4701   2.4785   2.4820   2.4879   2.4906
     2.6143   2.6172   2.6229   2.6234   2.7157   2.7183   2.7241   2.7255
     2.7599   2.7616   2.7763   2.7786   2.8618   2.8695   2.8714   2.8753
     2.9762   2.9780   2.9891   2.9892   3.1583   3.1605   3.1648   3.1658
     3.2206   3.2212   3.2278   3.2284   3.4415   3.4434   3.4480   3.4506
     3.4715   3.4730   3.4928   3.4947   3.5408   3.5414   3.5499   3.5501
     3.6279   3.6299   3.6358   3.6381   3.6761   3.6786   3.6876   3.6907
     3.7808   3.7813   3.7915   3.7929   4.0118   4.0147   4.0163   4.0196
     4.0993   4.1013   4.1214   4.1265   4.1402   4.1414   4.1593   4.1618
     4.1695   4.1718   4.1819   4.1842   4.2216   4.2230   4.2551   4.2562
     4.2853   4.2863   4.3205   4.3215   4.3432   4.3444   4.3531   4.3544
     4.4200   4.4208   4.4289   4.4323   4.5270   4.5274   4.5284   4.5285
     4.5533   4.5547   4.5593   4.5601   4.6761   4.6783   4.6827   4.6855
     4.7127   4.7141   4.7176   4.7182   4.7699   4.7726   4.7737   4.7773
     4.9210   4.9232   4.9263   4.9288   4.9786   4.9798   4.9847   4.9863
     5.0684   5.0739   5.0763   5.0818   5.1163   5.1184   5.1231   5.1240
     5.1310   5.1330   5.1357   5.1396   5.1617   5.1637   5.1729   5.1760
     5.2610   5.2624   5.2663   5.2673   5.2691   5.2723   5.2740   5.2746
     5.3483   5.3504   5.3515   5.3540   5.3653   5.3674   5.3695   5.3722

     highest occupied level (ev):     5.5668

!    total energy              =  -12670.37017230 Ry
     Harris-Foulkes estimate   =  -12670.37017266 Ry
     estimated scf accuracy    <       0.00000066 Ry

     total all-electron energy =   -212868.745674 Ry

     The total energy is the sum of the following terms:

     one-electron contribution =   -3357.55212618 Ry
     hartree contribution      =    2095.67113558 Ry
     xc contribution           =   -1379.73452171 Ry
     ewald contribution        =   -3490.65708867 Ry
     one-center paw contrib.   =   -6538.09757133 Ry

     convergence has been achieved in   5 iterations

     negative rho (up, down):  2.202E-06 0.000E+00

     Forces acting on atoms (cartesian axes, Ry/au):

     atom    1 type  1   force =    -0.00009085   -0.00023083   -0.00055028
     atom    2 type  1   force =    -0.00002616    0.00024598    0.00034697
     atom    3 type  1   force =    -0.00019777    0.00005668   -0.00016755
     atom    4 type  1   force =     0.00000512   -0.00003561    0.00010682
     atom    5 type  1   force =    -0.00037573    0.00030252   -0.00060034
     atom    6 type  1   force =    -0.00047249   -0.00030512    0.00056494
     atom    7 type  1   force =    -0.00057735    0.00011189   -0.00083852
     atom    8 type  1   force =    -0.00063975   -0.00005720    0.00096189
     atom    9 type  1   force =    -0.00013952   -0.00012023   -0.00054991
     atom   10 type  1   force =    -0.00012490   -0.00007694    0.00033467
     atom   11 type  1   force =    -0.00018479    0.00003417   -0.00038269
     atom   12 type  1   force =    -0.00012157    0.00008024    0.00025411
     atom   13 type  1   force =    -0.00013190   -0.00004451   -0.00018767
     atom   14 type  1   force =    -0.00012164    0.00003307    0.00018837
     atom   15 type  1   force =    -0.00019321    0.00017347   -0.00039845
     atom   16 type  1   force =    -0.00018853   -0.00010959    0.00041344
     atom   17 type  1   force =    -0.00055948   -0.00009102   -0.00040890
     atom   18 type  1   force =    -0.00050223    0.00019123    0.00035753
     atom   19 type  1   force =    -0.00038793    0.00000852   -0.00006081
     atom   20 type  1   force =    -0.00036579   -0.00021160    0.00007906
     atom   21 type  1   force =     0.00015413    0.00033533   -0.00036485
     atom   22 type  1   force =     0.00002780   -0.00023965    0.00034872
     atom   23 type  1   force =     0.00025907   -0.00003592   -0.00003936
     atom   24 type  1   force =     0.00020998   -0.00011059    0.00015498
     atom   25 type  2   force =     0.00001658    0.00039915   -0.00026545
     atom   26 type  2   force =    -0.00002405   -0.00028888    0.00039780
     atom   27 type  2   force =    -0.00001206    0.00002165   -0.00028101
     atom   28 type  2   force =     0.00006776    0.00006070    0.00034619
     atom   29 type  2   force =    -0.00001780    0.00016212   -0.00010022
     atom   30 type  2   force =    -0.00001595   -0.00022960    0.00009019
     atom   31 type  2   force =     0.00006851    0.00003797    0.00008750
     atom   32 type  2   force =     0.00000506    0.00005820   -0.00003770
     atom   33 type  2   force =    -0.00010324    0.00010611   -0.00050301
     atom   34 type  2   force =    -0.00012863   -0.00011945    0.00036680
     atom   35 type  2   force =    -0.00008444   -0.00022907   -0.00023359
     atom   36 type  2   force =    -0.00001455    0.00022385    0.00021242
     atom   37 type  2   force =     0.00022012   -0.00027617    0.00017224
     atom   38 type  2   force =     0.00034428    0.00017314   -0.00022558
     atom   39 type  2   force =     0.00023552    0.00030175    0.00000312
     atom   40 type  2   force =     0.00036857   -0.00012775    0.00004632
     atom   41 type  3   force =     0.00010994    0.00041857   -0.00022247
     atom   42 type  3   force =     0.00023324   -0.00033428    0.00017039
     atom   43 type  3   force =     0.00024933    0.00000486   -0.00033363
     atom   44 type  3   force =     0.00039257   -0.00007562    0.00037367
     atom   45 type  3   force =    -0.00002090    0.00019934    0.00062456
     atom   46 type  3   force =    -0.00000186   -0.00022659   -0.00038291
     atom   47 type  3   force =     0.00045071    0.00001254    0.00073234
     atom   48 type  3   force =     0.00027557   -0.00003351   -0.00036250
     atom   49 type  3   force =     0.00018115   -0.00030358   -0.00058626
     atom   50 type  3   force =     0.00030587    0.00022121    0.00040688
     atom   51 type  3   force =     0.00017060    0.00054192   -0.00037124
     atom   52 type  3   force =     0.00022107   -0.00036264    0.00018663
     atom   53 type  3   force =     0.00045809    0.00007370   -0.00056745
     atom   54 type  3   force =     0.00044092   -0.00032251    0.00039390
     atom   55 type  3   force =     0.00030675   -0.00014457   -0.00013842
     atom   56 type  3   force =     0.00048365    0.00015672    0.00009047
     atom   57 type  3   force =     0.00063965   -0.00042340   -0.00007429
     atom   58 type  3   force =     0.00078967    0.00019352    0.00005294
     atom   59 type  3   force =     0.00073245    0.00062499    0.00024721
     atom   60 type  3   force =     0.00084912   -0.00042809   -0.00014836
[...]
     atom   94 type  3   force =     0.00014294   -0.00043317    0.00018807
     atom   95 type  3   force =     0.00008209   -0.00019807    0.00018470
     atom   96 type  3   force =     0.00012860    0.00007375   -0.00004658
     atom   97 type  3   force =     0.00038062    0.00000554    0.00026878
     atom   98 type  3   force =     0.00037937    0.00001910   -0.00020394
     atom   99 type  3   force =     0.00041204    0.00009321    0.00067474
     atom  100 type  3   force =     0.00045373   -0.00025292   -0.00065402
     atom  101 type  3   force =    -0.00014159    0.00008184   -0.00000917
     atom  102 type  3   force =    -0.00060966   -0.00009790   -0.00000418
     atom  103 type  3   force =    -0.00014925    0.00008143    0.00040372
     atom  104 type  3   force =    -0.00039476    0.00017310   -0.00030609
     atom  105 type  3   force =    -0.00020751    0.00003843   -0.00015892
     atom  106 type  3   force =     0.00007055   -0.00010707    0.00010978
     atom  107 type  3   force =     0.00008049    0.00009296    0.00003257
     atom  108 type  3   force =     0.00022822   -0.00012980   -0.00004341

     Total force =     0.006157     Total SCF correction =     0.003162
     SCF correction compared to forces is large: reduce conv_thr to get better values

     bfgs converged in  24 scf cycles and  23 bfgs steps
     (criteria: energy <  1.0E-04 Ry, force <  1.0E-03 Ry/Bohr)

     End of BFGS Geometry Optimization

     Final energy   =  -12670.3701723040 Ry
Begin final coordinates

ATOMIC_POSITIONS (angstrom)
Nb            2.0424804296       14.3145519388        3.0443912022
Nb            5.9551433793        2.6929704880        0.4043395512
Nb            5.9626929285       19.3108886880        6.2980296468
Nb            2.0448284486       30.9294831248        3.6118815063
Nb            2.0713888859        2.6866981243        0.4026747817
Nb            5.9857028341       14.3208809417        3.0430404309
Nb            5.9863928141       30.9334729898        3.6133369701
Nb            2.0715504785       19.3081706541        6.2934768802
Nb            2.0223225622       12.6565655408        0.1813101618
Nb            5.9365560845        4.3585730796        3.2680136454
Nb            5.9404208934       20.9666298644        3.4331102118
Nb            2.0245222191       29.2646374979        0.0188550410
Nb            2.1289415961        4.3462470080        3.2631884538
Nb            6.0445358586       12.6638607512        0.1832634726
Nb            6.0473015787       29.2717809639        6.4772637385
Nb            2.1321279943       20.9647417206        3.4314434904
Nb            4.0300754838       11.6573839879        2.6098739581
Nb            0.1138648885        5.3471332508        0.8340405502
Nb            0.1171720102       21.9758141258        5.8490887523
Nb            4.0312021731       28.2658385163        4.0606234610
Nb            4.0337905098       10.0631127811        6.1253854193
Nb            0.1214136831        6.9435371629        3.7798216173
Nb            0.1181479365       23.5655541571        2.9006345322
Nb            4.0357797476       26.6771793277        0.5512207663
K             4.0325843982       15.8320103823        5.9685686596
K             0.1133098746        1.1954882556        3.9381101467
K             0.1171845213       17.7917957897        2.7501568635
K             4.0296289666       32.4272829467        0.6939172846
K             0.1099781188       15.7395182094        5.9644866838
K             4.0243633388        1.2795994678        3.9430722966
K             4.0252119157       17.8897779608        2.7436433913
K             0.1113174278       32.3374543009        0.7045069232
K             0.1170273977       11.2853928250        3.8445591609
K             4.0316666840        5.7247041252        6.0662075634
K             4.0338574140       22.3399118659        0.6241481676
K             0.1179470918       27.8999097327        2.8298960658
K             0.1123805088        9.1742025947        0.3490440435
K             4.0252765167        7.8296898485        3.0945110598
K             4.0309360508       24.4415309717        3.5827496845
K             0.1125219990       25.8011464951        6.3284405568
O             2.2472904535       16.0012381356        3.6128277347
O             6.1545453660        1.0057280868        6.2968248523
O             6.1726276283       17.6234412128        0.4000466139
O             2.2475555123       32.6164322336        3.0468145715
O             5.7766792981       16.0082534080        3.6078178519
O             1.8664379775        1.0002938284        6.2945763675
O             1.8527670942       17.6211482436        0.3941852488
O             5.7736047896       32.6199351002        3.0501097478
O             1.9978554698       13.4068632379        4.9273733787
O             5.9145071798        3.6016041677        4.9797220024
O             5.9162154872       20.2036187034        1.7216625457
O             2.0004975265       30.0296883702        1.7307225972
O             6.0343121272       13.4250085266        4.9356944525
O             2.1156101382        3.5888169084        4.9726388464
O             2.1237455526       20.1996280239        1.7226360964
O             6.0368471279       30.0378393480        1.7267405558
O             2.1609558424       10.7202986202        6.1863404193
O             6.0753107988        6.2909501763        3.7226156247
O             6.0788011046       22.9014718206        2.9624997320
O             2.1630395727       27.3346064734        0.4923574622
[...]
O             4.0147431120        2.8524436889        0.3298808554
O             4.0192990876       19.4510983795        6.3568059219
O             0.1027417449       30.7798678967        3.5524615007
O             4.0180257287       13.7318944795        3.1000908348
O             7.9321352519        3.2751075941        0.3463376479
O             7.9356259446       19.9023778723        6.3446608302
O             4.0193405431       30.3361840235        3.5647483423
O             4.0381381738        8.3227545404        5.7481272103
O             0.1333169251        8.6851198977        4.1500669116
O             0.1208570804       25.3057919447        2.5236309021
O             4.0456472279       24.9360200440        0.9237415383
O             4.0319882499       10.8366262571        4.2498740281
O             0.1139898435        6.1752368955        5.6569252182
O             0.1183907643       22.7969458423        1.0274808740
O             4.0313555970       27.4353312055        2.4266252072
End final coordinates

     Writing output data file ./outdir/knbo.save/

     General routines

     Parallel routines

   This run was terminated on:   9:41:50  15Jun2020

   JOB DONE.